networks/zoo_117_1370/zoo_117_1370-lower.txt
Number of groups: 67
Flow 6: {5 8 0} {8 67 0} 
Flow 9: {21 13 0} {13 72 0} 
Flow 24: {31 32 0} {32 91 0} 
Flow 32: {19 40 0} {40 99 0} 
Flow 43: {1 34 0} {34 16 0} {16 52 0} {52 111 0} 
Flow 64: {54 15 0} {15 27 0} {27 86 0} 
Flow 73: {2 5 0} {5 11 0} {11 43 0} 
Flow 90: {3 34 0} {34 15 0} {15 74 0} 
Flow 118: {4 36 0} {36 54 0} {54 113 0} 
Flow 182: {22 24 0} {24 83 0} 
Flow 201: {6 54 0} {54 7 0} {7 44 0} {44 103 0} 
Flow 232: {8 5 0} {5 54 0} {54 36 0} {36 26 0} {26 85 0} 
Flow 251: {9 23 0} {23 22 0} 
Flow 260: {10 57 0} {57 36 0} {36 95 0} 
Flow 271: {11 44 0} {44 7 0} {7 66 0} 
Flow 328: {12 11 0} {11 45 0} {45 104 0} 
Flow 347: {13 21 0} {21 22 0} 
Flow 351: {14 29 0} {29 15 0} {15 45 0} {45 11 0} {11 70 0} 
Flow 374: {57 10 0} {10 69 0} 
Flow 377: {15 29 0} {29 14 0} {14 73 0} 
Flow 413: {36 39 0} {39 53 0} {53 112 0} 
Flow 429: {16 34 0} {34 51 0} {51 110 0} 
Flow 433: {16 36 0} {36 38 0} {38 58 0} 
Flow 439: {17 33 0} {33 18 0} 
Flow 442: {18 55 0} {55 36 0} {36 4 0} {4 63 0} 
Flow 506: {22 21 0} {21 80 0} 
Flow 517: {22 19 0} {19 48 0} {48 41 0} {41 100 0} 
Flow 574: {24 22 0} {22 11 0} {11 54 0} {54 58 0} 
Flow 579: {25 36 0} {36 16 0} {16 75 0} 
Flow 594: {26 36 0} {36 25 0} {25 84 0} 
Flow 608: {28 54 0} {54 11 0} 
Flow 646: {29 58 0} {58 39 0} {39 98 0} 
Flow 707: {32 31 0} {31 33 0} {33 15 0} 
Flow 781: {33 17 0} {17 76 0} 
Flow 790: {15 54 0} {54 28 0} {28 87 0} 
Flow 791: {29 88 0} 
Flow 799: {38 97 0} 
Flow 811: {34 36 0} {36 50 0} {50 109 0} 
Flow 817: {15 56 0} {56 115 0} 
Flow 820: {35 33 0} {33 34 0} {34 1 0} {1 60 0} 
Flow 825: {35 36 0} {36 55 0} {55 114 0} 
Flow 883: {37 55 0} {55 18 0} {18 77 0} 
Flow 891: {37 36 0} {36 34 0} {34 33 0} {33 92 0} 
Flow 925: {39 36 0} {36 57 0} {57 116 0} 
Flow 948: {40 19 0} {19 42 0} {42 101 0} 
Flow 965: {41 48 0} {48 15 0} {15 34 0} {34 55 0} 
Flow 991: {42 19 0} {19 54 0} {54 43 0} {43 102 0} 
Flow 1001: {43 11 0} {11 5 0} {5 64 0} 
Flow 1002: {43 54 0} {54 6 0} {6 65 0} 
Flow 1019: {44 11 0} {11 22 0} {22 23 0} {23 9 0} {9 68 0} 
Flow 1024: {7 54 0} {54 19 0} {19 78 0} 
Flow 1050: {47 48 0} {48 19 0} {19 22 0} {22 81 0} 
Flow 1084: {15 33 0} {33 35 0} {35 94 0} 
Flow 1095: {48 46 0} {46 105 0} 
Flow 1096: {48 47 0} {47 106 0} 
Flow 1097: {48 49 0} {49 108 0} 
Flow 1113: {49 48 0} 
Flow 1138: {50 36 0} {36 37 0} 
Flow 1151: {51 34 0} {34 3 0} {3 62 0} 
Flow 1215: {53 39 0} {39 58 0} {58 117 0} 
Flow 1285: {18 33 0} {33 31 0} {31 90 0} 
Flow 1286: {55 34 0} {34 93 0} 
Flow 1288: {55 37 0} {37 96 0} 
Flow 1317: {58 54 0} {54 5 0} {5 2 0} {2 61 0} 
Flow 1333: {58 29 0} {29 30 0} {30 89 0} 
Flow 1337: {58 38 0} {38 36 0} {36 35 0} 
Flow 1365: {59 45 0} {45 15 0} {15 48 0} {48 107 0} 
Time taken running everything: 7 seconds
