networks/zoo_117_1370/zoo_117_1370-lower.sol
<?xml version = "1.0" encoding="UTF-8" standalone="yes"?>
<CPLEXSolution version="1.2">
 <header
   problemName="networks/zoo_117_1370/zoo_117_1370-lower.lp"
   solutionName="incumbent"
   solutionIndex="-1"
   objectiveValue="55"
   solutionTypeValue="3"
   solutionTypeString="primal"
   solutionStatusValue="101"
   solutionStatusString="integer optimal solution"
   solutionMethodString="mip"
   primalFeasible="1"
   dualFeasible="1"
   MIPNodes="0"
   MIPIterations="0"
   writeLevel="3"/>
 <quality
   epInt="1.0000000000000001e-05"
   epRHS="9.9999999999999995e-07"
   maxIntInfeas="0"
   maxPrimalInfeas="0"
   maxX="1"
   maxSlack="1"/>
 <variables>
  <variable name="Y(1,2)" index="1" value="1"/>
  <variable name="Y(2,4)" index="116" value="1"/>
  <variable name="Y(3,5)" index="230" value="1"/>
  <variable name="Y(4,6)" index="344" value="1"/>
  <variable name="Y(5,7)" index="458" value="1"/>
  <variable name="Y(6,8)" index="572" value="1"/>
  <variable name="Y(7,9)" index="686" value="1"/>
  <variable name="Y(8,11)" index="801" value="1"/>
  <variable name="Y(9,13)" index="916" value="1"/>
  <variable name="Y(10,14)" index="1030" value="1"/>
  <variable name="Y(11,15)" index="1144" value="1"/>
  <variable name="Y(12,16)" index="1258" value="1"/>
  <variable name="Y(13,17)" index="1372" value="1"/>
  <variable name="Y(14,18)" index="1486" value="1"/>
  <variable name="Y(15,19)" index="1600" value="1"/>
  <variable name="Y(16,21)" index="1714" value="1"/>
  <variable name="Y(17,22)" index="1828" value="1"/>
  <variable name="Y(18,25)" index="1944" value="1"/>
  <variable name="Y(19,26)" index="2058" value="1"/>
  <variable name="Y(20,27)" index="2172" value="1"/>
  <variable name="Y(21,29)" index="2287" value="1"/>
  <variable name="Y(22,30)" index="2401" value="1"/>
  <variable name="Y(23,31)" index="2515" value="1"/>
  <variable name="Y(24,32)" index="2629" value="1"/>
  <variable name="Y(25,33)" index="2743" value="1"/>
  <variable name="Y(26,34)" index="2857" value="1"/>
  <variable name="Y(27,35)" index="2971" value="1"/>
  <variable name="Y(28,36)" index="3085" value="1"/>
  <variable name="Y(29,37)" index="3199" value="1"/>
  <variable name="Y(30,38)" index="3313" value="1"/>
  <variable name="Y(31,39)" index="3427" value="1"/>
  <variable name="Y(32,40)" index="3541" value="1"/>
  <variable name="Y(33,41)" index="3655" value="1"/>
  <variable name="Y(34,42)" index="3769" value="1"/>
  <variable name="Y(35,43)" index="3883" value="1"/>
  <variable name="Y(36,44)" index="3997" value="1"/>
  <variable name="Y(37,45)" index="4111" value="1"/>
  <variable name="Y(38,46)" index="4225" value="1"/>
  <variable name="Y(39,47)" index="4339" value="1"/>
  <variable name="Y(40,48)" index="4453" value="1"/>
  <variable name="Y(41,49)" index="4567" value="1"/>
  <variable name="Y(42,51)" index="4682" value="1"/>
  <variable name="Y(43,52)" index="4796" value="1"/>
  <variable name="Y(44,54)" index="4911" value="1"/>
  <variable name="Y(45,55)" index="5025" value="1"/>
  <variable name="Y(46,56)" index="5139" value="1"/>
  <variable name="Y(47,57)" index="5253" value="1"/>
  <variable name="Y(48,58)" index="5367" value="1"/>
  <variable name="Y(49,1)" index="5424" value="1"/>
  <variable name="Y(166,3)" index="18647" value="1"/>
  <variable name="Y(182,24)" index="20475" value="1"/>
  <variable name="Y(207,50)" index="23326" value="1"/>
  <variable name="Y(374,10)" index="42158" value="1"/>
  <variable name="Y(388,28)" index="43757" value="1"/>
  <variable name="Y(413,53)" index="46607" value="1"/>
  <variable name="X(1,34,1)" index="154810" value="1"/>
  <variable name="X(1,60,49)" index="156228" value="1"/>
  <variable name="X(2,5,49)" index="157598" value="1"/>
  <variable name="X(2,61,1)" index="158920" value="1"/>
  <variable name="X(3,34,82)" index="160371" value="1"/>
  <variable name="X(3,62,166)" index="161825" value="1"/>
  <variable name="X(4,36,118)" index="163147" value="1"/>
  <variable name="X(4,63,2)" index="164401" value="1"/>
  <variable name="X(5,2,1)" index="165770" value="1"/>
  <variable name="X(5,8,6)" index="167145" value="1"/>
  <variable name="X(5,11,54)" index="168563" value="1"/>
  <variable name="X(5,54,49)" index="169928" value="1"/>
  <variable name="X(5,64,3)" index="171252" value="1"/>
  <variable name="X(6,54,164)" index="172783" value="1"/>
  <variable name="X(6,65,4)" index="173993" value="1"/>
  <variable name="X(7,44,201)" index="175560" value="1"/>
  <variable name="X(7,54,215)" index="176944" value="1"/>
  <variable name="X(7,66,5)" index="178104" value="1"/>
  <variable name="X(8,5,225)" index="179694" value="1"/>
  <variable name="X(8,67,6)" index="180845" value="1"/>
  <variable name="X(9,23,239)" index="182448" value="1"/>
  <variable name="X(9,68,7)" index="183586" value="1"/>
  <variable name="X(10,57,253)" index="185202" value="1"/>
  <variable name="X(10,69,374)" index="186693" value="1"/>
  <variable name="X(11,5,240)" index="187929" value="1"/>
  <variable name="X(11,22,7)" index="189066" value="1"/>
  <variable name="X(11,43,73)" index="190502" value="1"/>
  <variable name="X(11,44,36)" index="191835" value="1"/>
  <variable name="X(11,45,75)" index="193244" value="1"/>
  <variable name="X(11,54,241)" index="194780" value="1"/>
  <variable name="X(11,70,8)" index="195917" value="1"/>
  <variable name="X(12,11,316)" index="197595" value="1"/>
  <variable name="X(13,21,335)" index="198984" value="1"/>
  <variable name="X(13,72,9)" index="200028" value="1"/>
  <variable name="X(14,29,348)" index="201737" value="1"/>
  <variable name="X(14,73,10)" index="202769" value="1"/>
  <variable name="X(15,27,20)" index="204149" value="1"/>
  <variable name="X(15,29,10)" index="205509" value="1"/>
  <variable name="X(15,33,58)" index="206927" value="1"/>
  <variable name="X(15,34,49)" index="208288" value="1"/>
  <variable name="X(15,45,7)" index="209616" value="1"/>
  <variable name="X(15,48,15)" index="210994" value="1"/>
  <variable name="X(15,54,1)" index="212350" value="1"/>
  <variable name="X(15,56,46)" index="213765" value="1"/>
  <variable name="X(15,74,11)" index="215100" value="1"/>
  <variable name="X(16,34,419)" index="216878" value="1"/>
  <variable name="X(16,36,420)" index="218249" value="1"/>
  <variable name="X(16,52,43)" index="219242" value="1"/>
  <variable name="X(16,75,12)" index="220581" value="1"/>
  <variable name="X(17,33,434)" index="222373" value="1"/>
  <variable name="X(17,76,13)" index="223322" value="1"/>
  <variable name="X(18,33,441)" index="225120" value="1"/>
  <variable name="X(18,55,439)" index="226488" value="1"/>
  <variable name="X(18,77,14)" index="227433" value="1"/>
  <variable name="X(19,22,470)" index="229259" value="1"/>
  <variable name="X(19,40,32)" index="230191" value="1"/>
  <variable name="X(19,42,34)" index="231563" value="1"/>
  <variable name="X(19,48,488)" index="233387" value="1"/>
  <variable name="X(19,54,464)" index="234733" value="1"/>
  <variable name="X(19,78,15)" index="235654" value="1"/>
  <variable name="X(21,13,9)" index="237018" value="1"/>
  <variable name="X(21,22,335)" index="238714" value="1"/>
  <variable name="X(21,80,16)" index="239765" value="1"/>
  <variable name="X(22,11,239)" index="241358" value="1"/>
  <variable name="X(22,19,280)" index="242769" value="1"/>
  <variable name="X(22,21,9)" index="243868" value="1"/>
  <variable name="X(22,23,7)" index="245236" value="1"/>
  <variable name="X(22,24,182)" index="246781" value="1"/>
  <variable name="X(22,81,17)" index="247986" value="1"/>
  <variable name="X(23,9,7)" index="249346" value="1"/>
  <variable name="X(23,22,239)" index="250948" value="1"/>
  <variable name="X(24,22,563)" index="252642" value="1"/>
  <variable name="X(24,83,182)" index="253631" value="1"/>
  <variable name="X(25,36,575)" index="255394" value="1"/>
  <variable name="X(25,84,18)" index="256207" value="1"/>
  <variable name="X(26,36,587)" index="258146" value="1"/>
  <variable name="X(26,85,19)" index="258948" value="1"/>
  <variable name="X(27,86,20)" index="260319" value="1"/>
  <variable name="X(28,54,605)" index="262274" value="1"/>
  <variable name="X(28,87,388)" index="263427" value="1"/>
  <variable name="X(29,14,10)" index="264419" value="1"/>
  <variable name="X(29,15,348)" index="266127" value="1"/>
  <variable name="X(29,30,22)" index="267171" value="1"/>
  <variable name="X(29,58,364)" index="268883" value="1"/>
  <variable name="X(29,88,21)" index="269910" value="1"/>
  <variable name="X(30,89,22)" index="271281" value="1"/>
  <variable name="X(31,32,24)" index="272653" value="1"/>
  <variable name="X(31,33,662)" index="274661" value="1"/>
  <variable name="X(31,90,23)" index="275392" value="1"/>
  <variable name="X(32,31,702)" index="277441" value="1"/>
  <variable name="X(32,91,24)" index="278133" value="1"/>
  <variable name="X(33,15,435)" index="279914" value="1"/>
  <variable name="X(33,17,13)" index="280862" value="1"/>
  <variable name="X(33,18,14)" index="282233" value="1"/>
  <variable name="X(33,31,23)" index="283612" value="1"/>
  <variable name="X(33,34,434)" index="285393" value="1"/>
  <variable name="X(33,35,27)" index="286356" value="1"/>
  <variable name="X(33,92,25)" index="287724" value="1"/>
  <variable name="X(34,1,49)" index="289118" value="1"/>
  <variable name="X(34,3,166)" index="290605" value="1"/>
  <variable name="X(34,15,1)" index="291810" value="1"/>
  <variable name="X(34,16,12)" index="293191" value="1"/>
  <variable name="X(34,33,13)" index="294562" value="1"/>
  <variable name="X(34,36,2)" index="295921" value="1"/>
  <variable name="X(34,51,42)" index="297331" value="1"/>
  <variable name="X(34,55,45)" index="298704" value="1"/>
  <variable name="X(34,93,26)" index="300055" value="1"/>
  <variable name="X(35,33,820)" index="302219" value="1"/>
  <variable name="X(35,36,821)" index="303590" value="1"/>
  <variable name="X(35,94,27)" index="304166" value="1"/>
  <variable name="X(36,4,2)" index="305511" value="1"/>
  <variable name="X(36,16,57)" index="306936" value="1"/>
  <variable name="X(36,25,18)" index="308267" value="1"/>
  <variable name="X(36,26,19)" index="309638" value="1"/>
  <variable name="X(36,34,253)" index="311242" value="1"/>
  <variable name="X(36,35,68)" index="312427" value="1"/>
  <variable name="X(36,37,29)" index="313758" value="1"/>
  <variable name="X(36,38,30)" index="315129" value="1"/>
  <variable name="X(36,39,31)" index="316500" value="1"/>
  <variable name="X(36,50,207)" index="318046" value="1"/>
  <variable name="X(36,54,118)" index="319327" value="1"/>
  <variable name="X(36,55,79)" index="320658" value="1"/>
  <variable name="X(36,57,47)" index="321996" value="1"/>
  <variable name="X(36,95,28)" index="323347" value="1"/>
  <variable name="X(37,36,873)" index="325562" value="1"/>
  <variable name="X(37,55,883)" index="326942" value="1"/>
  <variable name="X(37,96,29)" index="327458" value="1"/>
  <variable name="X(38,36,906)" index="329705" value="1"/>
  <variable name="X(38,58,264)" index="330433" value="1"/>
  <variable name="X(38,97,30)" index="331569" value="1"/>
  <variable name="X(39,36,910)" index="333819" value="1"/>
  <variable name="X(39,53,413)" index="334692" value="1"/>
  <variable name="X(39,58,926)" index="336575" value="1"/>
  <variable name="X(39,98,31)" index="337050" value="1"/>
  <variable name="X(40,19,927)" index="339316" value="1"/>
  <variable name="X(40,99,32)" index="339791" value="1"/>
  <variable name="X(41,48,957)" index="342086" value="1"/>
  <variable name="X(41,100,33)" index="342532" value="1"/>
  <variable name="X(42,19,967)" index="344836" value="1"/>
  <variable name="X(42,101,34)" index="345273" value="1"/>
  <variable name="X(43,11,1001)" index="347610" value="1"/>
  <variable name="X(43,54,1000)" index="348979" value="1"/>
  <variable name="X(43,102,35)" index="349384" value="1"/>
  <variable name="X(44,7,271)" index="350990" value="1"/>
  <variable name="X(44,11,217)" index="352306" value="1"/>
  <variable name="X(44,103,36)" index="353495" value="1"/>
  <variable name="X(45,11,7)" index="354836" value="1"/>
  <variable name="X(45,15,239)" index="356438" value="1"/>
  <variable name="X(45,104,37)" index="357606" value="1"/>
  <variable name="X(46,105,38)" index="358977" value="1"/>
  <variable name="X(47,48,1045)" index="361354" value="1"/>
  <variable name="X(47,106,39)" index="361718" value="1"/>
  <variable name="X(48,15,957)" index="364006" value="1"/>
  <variable name="X(48,19,15)" index="364434" value="1"/>
  <variable name="X(48,41,33)" index="365822" value="1"/>
  <variable name="X(48,46,38)" index="367197" value="1"/>
  <variable name="X(48,47,39)" index="368568" value="1"/>
  <variable name="X(48,49,41)" index="369940" value="1"/>
  <variable name="X(48,107,40)" index="371309" value="1"/>
  <variable name="X(49,48,1105)" index="373744" value="1"/>
  <variable name="X(49,108,41)" index="374050" value="1"/>
  <variable name="X(50,36,1119)" index="376498" value="1"/>
  <variable name="X(50,109,207)" index="376956" value="1"/>
  <variable name="X(51,34,1149)" index="379268" value="1"/>
  <variable name="X(51,110,42)" index="379531" value="1"/>
  <variable name="X(52,111,43)" index="380902" value="1"/>
  <variable name="X(53,39,1202)" index="383431" value="1"/>
  <variable name="X(53,112,413)" index="384012" value="1"/>
  <variable name="X(54,5,1)" index="384970" value="1"/>
  <variable name="X(54,6,4)" index="386343" value="1"/>
  <variable name="X(54,7,5)" index="387714" value="1"/>
  <variable name="X(54,11,171)" index="389250" value="1"/>
  <variable name="X(54,15,49)" index="390498" value="1"/>
  <variable name="X(54,19,59)" index="391878" value="1"/>
  <variable name="X(54,28,388)" index="393577" value="1"/>
  <variable name="X(54,36,50)" index="394609" value="1"/>
  <variable name="X(54,43,35)" index="395964" value="1"/>
  <variable name="X(54,58,48)" index="397347" value="1"/>
  <variable name="X(54,113,44)" index="398713" value="1"/>
  <variable name="X(55,18,592)" index="400631" value="1"/>
  <variable name="X(55,34,1269)" index="402678" value="1"/>
  <variable name="X(55,36,442)" index="403221" value="1"/>
  <variable name="X(55,37,455)" index="404604" value="1"/>
  <variable name="X(55,114,45)" index="405564" value="1"/>
  <variable name="X(56,115,46)" index="406935" value="1"/>
  <variable name="X(57,10,374)" index="408633" value="1"/>
  <variable name="X(57,36,253)" index="409882" value="1"/>
  <variable name="X(57,116,47)" index="411046" value="1"/>
  <variable name="X(58,29,1316)" index="413685" value="1"/>
  <variable name="X(58,38,1318)" index="415057" value="1"/>
  <variable name="X(58,39,646)" index="415755" value="1"/>
  <variable name="X(58,54,1317)" index="417796" value="1"/>
  <variable name="X(58,117,48)" index="417897" value="1"/>
  <variable name="X(59,45,1354)" index="420573" value="1"/>
 </variables>
</CPLEXSolution>
